Version identifier: 20.1.0.0 | 2020-11-10 | 9bedb6d68
CPXPARAM_Threads                                 1
CPXPARAM_TimeLimit                               7200
CPXPARAM_MIP_Tolerances_MIPGap                   0
Generic callback                                 0x60
1 of 1 MIP starts provided solutions.
MIP start 'm1' defined initial solution with objective 499.0956.
Tried aggregator 1 time.
Reduced MIP has 1 rows, 501 columns, and 500 nonzeros.
Reduced MIP has 500 binaries, 0 generals, 0 SOSs, and 0 indicators.
Presolve time = 0.00 sec. (0.15 ticks)
Probing time = 0.00 sec. (0.05 ticks)
Tried aggregator 1 time.
Reduced MIP has 1 rows, 501 columns, and 500 nonzeros.
Reduced MIP has 500 binaries, 0 generals, 0 SOSs, and 0 indicators.
Presolve time = 0.00 sec. (0.15 ticks)
Probing time = 0.00 sec. (0.05 ticks)
MIP emphasis: balance optimality and feasibility.
MIP search method: dynamic search.
Parallel mode: none, using 1 thread.
Root relaxation solution time = 0.00 sec. (0.10 ticks)

        Nodes                                         Cuts/
   Node  Left     Objective  IInf  Best Integer    Best Bound    ItCnt     Gap

*     0+    0                          499.0956     2716.0000           444.18%
      0     0      663.2099     2      499.0956     2716.0000        0  444.18%
      0     0      622.6197     4      499.0956 UserPurge2: 1        9   24.75%
      0     0      521.9216     3      499.0956 UserPurge2: 1       27    4.57%

Repeating presolve.
Tried aggregator 1 time.
MIP Presolve eliminated 0 rows and 230 columns.
Reduced MIP has 1 rows, 271 columns, and 270 nonzeros.
Reduced MIP has 270 binaries, 0 generals, 0 SOSs, and 0 indicators.
Presolve time = 0.00 sec. (0.12 ticks)
Probing time = 0.00 sec. (0.03 ticks)
Tried aggregator 1 time.
Reduced MIP has 1 rows, 271 columns, and 270 nonzeros.
Reduced MIP has 270 binaries, 0 generals, 0 SOSs, and 0 indicators.
Presolve time = 0.00 sec. (0.08 ticks)
Represolve time = 0.00 sec. (0.61 ticks)
Probing time = 0.00 sec. (0.03 ticks)
MIP emphasis: balance optimality and feasibility.
MIP search method: dynamic search.
Parallel mode: none, using 1 thread.
Root relaxation solution time = 0.00 sec. (0.27 ticks)

        Nodes                                         Cuts/
   Node  Left     Objective  IInf  Best Integer    Best Bound    ItCnt     Gap

*     0+    0                          499.0956      521.9216             4.57%
      0     0      521.3643     4      499.0956      521.3643       35    4.46%
      0     0      513.7794     3      499.0956 UserPurge2: 1       43    2.94%
      0     0      508.8660     4      499.0956 UserPurge2: 1       49    1.96%
*     0+    0                          499.4040      508.8660             1.89%
      0     0      508.3790     4      499.4040 UserPurge2: 1       51    1.80%
      0     0      506.6269     5      499.4040 UserPurge2: 1       56    1.45%
      0     0      504.5787     5      499.4040 UserPurge2: 1       65    1.04%
      0     0      504.3237     6      499.4040 UserPurge2: 1       69    0.99%
      0     2      504.3237     6      499.4040      504.2847       69    0.98%
Elapsed time = 5.41 sec. (9.32 ticks, tree = 0.01 MB, solutions = 2)
*     1     1      integral     0      500.2374      504.2847      245    0.81%

User cuts applied:  54

Root node processing (before b&c):
  Real time             =    5.41 sec. (9.38 ticks)
Sequential b&c:
  Real time             =    1.98 sec. (8.24 ticks)
                          ------------
Total (root+branch&cut) =    7.38 sec. (17.62 ticks)
@Parameters: 
is_S_cut                                true
is_add_all_yinF                         true
is_start_value                          true
is_usercut                              true
is_visualization                        false
uc_only_rootnode                        false

data                                    Qi
fn                                      data/Qi/instance_500_500.csv
mode                                    NewSubmodular
solver                                  cplex

p                                       2
r                                       50

EPS                                     1.0e-06
EPS_vio                                 1.0e-04
beta                                    0.10
gap                                     0.00
nodelimit                               Inf
timelimit                               7200.00


@PrintInfos
ItCnt: 258
Current gap: 0.00 %
Termination Status: OPTIMAL
Primal Status: FEASIBLE_POINT
Solve Time: 7.38 sec
Objective Value: 500.237395
Number of Nodes:      3

CutInfo: [phase] num / time (sec) 
ZLP             [phase1]     0 / 0.00 [rLC]     0 / 0.00 [rUC]     0 / 0.00 [sLC]     0 / 0.00 [sUC]     0 / 0.00 
OldSubmodular   [phase1]     0 / 0.00 [rLC]     0 / 0.00 [rUC]     0 / 0.00 [sLC]     0 / 0.00 [sUC]     0 / 0.00 
NewSubmodular   [phase1]     0 / 0.00 [rLC]    13 / 2.65 [rUC]    16 / 0.71 [sLC]     0 / 0.16 [sUC]    45 / 1.80 
PMP             [phase1]     0 / 0.00 [rLC]     4 / 0.63 [rUC]     0 / 0.00 [sLC]     1 / 0.14 [sUC]     0 / 0.00 
Separation Round: [phase1] 0  [rLC] 13  [rUC] 10  [sLC] 1  [sUC] 23
Root Best Bound 500.237395
Root Best Integer: 500.237395
Best Bound: 500.237395
Best Integer: 500.237395

